#************************************************************************************
#*                   Generated by cif2cell 2.1.0 2025-04-16 11:58                   *
#*  T. Bjorkman, Comp. Phys. Commun. 182, 1183-1186 (2011). Please cite generously. *
#*                                                                                  *
#*                              Data obtained from COD                              *
#*                                    None   ()                                     *
#*             Failed to get author information, No journal information             *
#************************************************************************************
# Lattice constant in a.u.
lengthscale
6.7338518744661
# Spin polarized calculation
spinpol
# Spin polarize atomic densities
spinpol_atomdens
# Choice of MT radii
mtradii
3
# Lattice vectors (columns)
latticevectors
  1.000000000000000   0.000000000000000   0.000000000000000 
  0.000000000000000   1.000000000000000   0.000000000000000 
  0.000000000000000   0.000000000000000   2.972443460615295 
# Spin axis
spinaxis
  0.000000000000000   0.000000000000000   1.000000000000000  l
# Sites
atoms
12
  0.000000000000024   0.000000000000000  -0.000000001198008   30 l a   # Zn
  0.500000000010434   0.499999999999999  -0.000000005841719   28 l up  # Ni
  0.499999999999601   0.500000000000000   0.335121001470696   28 l up  # Ni
  0.500000000000105   0.500000000000000   0.664878998263333   28 l up  # Ni
  0.500000000001883  -0.000000000000000   0.171354004266654   28 l up  # Ni
  0.500000000000066  -0.000000000000000   0.499999995280252   28 l up  # Ni
  0.500000000000111   0.000000000000000   0.828645999624993   28 l up  # Ni
 -0.000000000005589   0.499999999999992   0.171354004507352   28 l up  # Ni
 -0.000000000000450   0.500000000000000   0.500000001303728   28 l up  # Ni
 -0.000000000001820   0.499999999999999   0.828646002706979   28 l up  # Ni
  0.000000000001942  -0.000000000000001   0.332228998120388   26 l up  # Fe
  0.000000000000839   0.000000000000000   0.667771002343221   26 l up  # Fe
