#************************************************************************************
#*                   Generated by cif2cell 2.1.0 2025-06-23 17:48                   *
#*  T. Bjorkman, Comp. Phys. Commun. 182, 1183-1186 (2011). Please cite generously. *
#*                                                                                  *
#*                              Data obtained from COD                              *
#*                                    None   ()                                     *
#*             Failed to get author information, No journal information             *
#************************************************************************************
# Lattice constant in a.u.
lengthscale
5.013707904954
# Spin polarized calculation
spinpol
# Spin polarize atomic densities
spinpol_atomdens
# Choice of MT radii
mtradii
3
# Lattice vectors (columns)
latticevectors
  1.000000000000000  -0.500000058532805   0.000000000000000 
  0.000000000000000   0.866027110871564   0.000003028371757 
  0.000000000000000   0.000000000000000   3.266666666665263 
# Spin axis
spinaxis
  0.000000000000000   0.000000000000000   1.000000000000000  l
# Sites
atoms
8
  0.000000000000000   0.000000000000010   0.500000000000000   27 l up  # Co
  0.666666666666657   0.333333333333343   0.250777000000000   26 l up  # Fe
  0.333333333333323   0.666666666666677   0.749223000000000   26 l up  # Fe
  0.000000000000010   0.000000000000000   0.000000000000000   24 l up  # Cr
  0.666666666666667   0.333333333333333   0.880662000000000    1 l a   # H
  0.333333333333333   0.666666666666657   0.119338000000000    1 l a   # H
  0.333333333333343   0.666666666666667   0.384323000000000    1 l a   # H
  0.666666666666677   0.333333333333323   0.615677000000000    1 l a   # H
