#************************************************************************************
#*                   Generated by cif2cell 2.1.0 2026-01-04 23:01                   *
#*  T. Bjorkman, Comp. Phys. Commun. 182, 1183-1186 (2011). Please cite generously. *
#*                                                                                  *
#*                              Data obtained from COD                              *
#*                                    None   ()                                     *
#*             Failed to get author information, No journal information             *
#************************************************************************************
# Lattice constant in a.u.
lengthscale
9.9037615825545
# Spin polarized calculation
spinpol
# Spin polarize atomic densities
spinpol_atomdens
# Choice of MT radii
mtradii
3
# Lattice vectors (columns)
latticevectors
  1.000000000000000  -0.500000000000000   0.000000000000000 
  0.000000000000000   0.866025403784439   0.000000000000001 
  0.000000000000000   0.000000000000000   4.738879894368179 
# Spin axis
spinaxis
  0.000000000000000   0.000000000000000   1.000000000000000  l
# Sites
atoms
36
  0.000000000000000   0.000000000000000   0.332980000000068   41 l a   # Nb
  0.000000000000000   0.000000000000000   0.667020000000066   41 l a   # Nb
  0.666666666666667   0.333333333333333   0.666312999999951   41 l a   # Nb
  0.666666666666667   0.333333333333333   0.000353000000036   41 l a   # Nb
  0.333333333333333   0.666666666666667   0.999646999999999   41 l a   # Nb
  0.333333333333333   0.666666666666667   0.333687000000017   41 l a   # Nb
  0.000000000000000   0.000000000000000   0.000000000000004   39 l a   # Y
  0.666666666666667   0.333333333333333   0.333333333333333   39 l a   # Y
  0.333333333333333   0.666666666666667   0.666666666666667   39 l a   # Y
  0.000000000000000   0.000000000000000   0.141439000000010   39 l a   # Y
  0.000000000000000   0.000000000000000   0.858560999999950   39 l a   # Y
  0.666666666666667   0.333333333333333   0.474771999999971   39 l a   # Y
  0.666666666666667   0.333333333333333   0.191894999999922   39 l a   # Y
  0.333333333333333   0.666666666666667   0.808105000000011   39 l a   # Y
  0.333333333333333   0.666666666666667   0.525227999999949   39 l a   # Y
  0.000000000000000   0.000000000000000   0.499999999999974   26 l up  # Fe
  0.666666666666667   0.333333333333333   0.833333000000020   26 l up  # Fe
  0.333333333333333   0.666666666666667   0.166666999999979   26 l up  # Fe
  0.498900000000000   0.501100000000000   0.085696999999897   26 l up  # Fe
  0.501100000000000   0.498900000000000   0.914303000000081   26 l up  # Fe
  0.498900000000000   0.997800000000000   0.085696999999947   26 l up  # Fe
  0.501100000000000   0.002200000000000   0.914303000000000   26 l up  # Fe
  0.002200000000000   0.501100000000000   0.085696999999918   26 l up  # Fe
  0.997800000000000   0.498900000000000   0.914303000000063   26 l up  # Fe
  0.165567000000000   0.834433000000000   0.419031000000083   26 l up  # Fe
  0.167767000000000   0.832233000000000   0.247636000000034   26 l up  # Fe
  0.165567000000000   0.331133000000000   0.419031000000062   26 l up  # Fe
  0.167767000000000   0.335533000000000   0.247635999999963   26 l up  # Fe
  0.668867000000000   0.834433000000000   0.419030999999985   26 l up  # Fe
  0.664467000000000   0.832233000000000   0.247635999999960   26 l up  # Fe
  0.832233000000000   0.167767000000000   0.752364000000002   26 l up  # Fe
  0.834433000000000   0.165567000000000   0.580968999999983   26 l up  # Fe
  0.832233000000000   0.664467000000000   0.752363999999943   26 l up  # Fe
  0.834433000000000   0.668867000000000   0.580968999999975   26 l up  # Fe
  0.335533000000000   0.167767000000000   0.752363999999962   26 l up  # Fe
  0.331133000000000   0.165567000000000   0.580969000000014   26 l up  # Fe
