#************************************************************************************
#*                   Generated by cif2cell 2.1.0 2025-05-21 14:25                   *
#*  T. Bjorkman, Comp. Phys. Commun. 182, 1183-1186 (2011). Please cite generously. *
#*                                                                                  *
#*                              Data obtained from COD                              *
#*                                    None   ()                                     *
#*             Failed to get author information, No journal information             *
#************************************************************************************
# Lattice constant in a.u.
lengthscale
10.7208621406596
# Spin polarized calculation
spinpol
# Spin polarize atomic densities
spinpol_atomdens
# Choice of MT radii
mtradii
3
# Lattice vectors (columns)
latticevectors
  1.000000000000000   0.000000000000000   0.000000000000000 
  0.000000000000000   1.000000000000000   0.000000000000000 
  0.000000000000000   0.000000000000000   1.099978918557240 
# Spin axis
spinaxis
  0.000000000000000   0.000000000000000   1.000000000000000  l
# Sites
atoms
18
  0.000000000000010   0.000000000000000   0.294104000000000   26 l up  # Fe
  0.000000000000000   0.000000000000010   0.705896000000000   26 l up  # Fe
  0.500000000000000   0.500000000000000   0.794104000000000   26 l up  # Fe
  0.500000000000000   0.500000000000010   0.205896000000000   26 l up  # Fe
  0.243329000000000   0.243329000000010   0.000000000000000   26 l up  # Fe
  0.756671000000000   0.756671000000000   0.000000000000010   26 l up  # Fe
  0.756671000000000   0.243329000000000   0.000000000000010   26 l up  # Fe
  0.243329000000000   0.756671000000010   0.000000000000000   26 l up  # Fe
  0.743329000000010   0.743329000000000   0.500000000000000   26 l up  # Fe
  0.256671000000010   0.256671000000000   0.500000000000000   26 l up  # Fe
  0.256671000000000   0.743329000000000   0.500000000000000   26 l up  # Fe
  0.743329000000010   0.256671000000000   0.500000000000000   26 l up  # Fe
  0.000000000000000   0.500000000000010   0.250000000000000   26 l up  # Fe
  0.000000000000010   0.500000000000000   0.750000000000000   26 l up  # Fe
  0.500000000000000   0.000000000000010   0.250000000000000   26 l up  # Fe
  0.500000000000000   0.000000000000010   0.750000000000000   26 l up  # Fe
  0.000000000000000   0.000000000000010   0.000000000000000    7 l a   # N
  0.500000000000000   0.500000000000000   0.500000000000000    7 l a   # N
