#************************************************************************************
#*                   Generated by cif2cell 2.1.0 2024-10-04 0:50                    *
#*  T. Bjorkman, Comp. Phys. Commun. 182, 1183-1186 (2011). Please cite generously. *
#*                                                                                  *
#*                              Data obtained from COD                              *
#*                                   YTi2Fe9   ()                                   *
#*             Failed to get author information, No journal information             *
#************************************************************************************
# Lattice constant in a.u.
lengthscale
15.469758947768401
# Spin polarized calculation
spinpol
# Spin polarize atomic densities
spinpol_atomdens
# Choice of MT radii
mtradii
3
# Lattice vectors (columns)
latticevectors
  1.000000000000000   0.000000000000000   0.000000000000000 
  0.000000000000000   1.000000000000000   0.000000000000000 
  0.000000000000000   0.000000000000000   0.597697307825176 
# Spin axis
spinaxis
  0.000000000000000   0.000000000000000   1.000000000000000  l
# Sites
atoms
24
  0.000000000000000   0.000000000000000   0.000000000003042   39 l a   # Y
  0.500000000000000   0.500000000000000   0.000000000001035   39 l a   # Y
  0.677077000000000   0.177077000000000   0.239079000000055   26 l up  # Fe
  0.177077000000000   0.322923000000000   0.239078999999942   26 l up  # Fe
  0.822923000000000   0.677077000000000   0.239079000001803   26 l up  # Fe
  0.322923000000000   0.822923000000000   0.239078999998882   26 l up  # Fe
  0.500000000000000   0.000000000000000   0.499999000000695   26 l up  # Fe
  0.212353000000000   0.066578000000000   0.499999000001436   26 l up  # Fe
  0.933422000000000   0.212353000000000   0.499999000000290   26 l up  # Fe
  0.433422000000000   0.287648000000000   0.499999000003170   26 l up  # Fe
  0.712353000000000   0.433422000000000   0.499999000001664   26 l up  # Fe
  0.000000000000000   0.500000000000000   0.499998999999021   26 l up  # Fe
  0.287648000000000   0.566578000000000   0.499998999998159   26 l up  # Fe
  0.566578000000000   0.712353000000000   0.499998999999420   26 l up  # Fe
  0.066578000000000   0.787648000000000   0.499999000002165   26 l up  # Fe
  0.787648000000000   0.933422000000000   0.499999000000263   26 l up  # Fe
  0.677077000000000   0.177077000000000   0.760921000001049   26 l up  # Fe
  0.177077000000000   0.322923000000000   0.760920999999740   26 l up  # Fe
  0.822923000000000   0.677077000000000   0.760921000003194   26 l up  # Fe
  0.322923000000000   0.822923000000000   0.760920999996210   26 l up  # Fe
  0.378755000000000   0.121245000000000   0.000000000000684   22 l up  # Ti
  0.878755000000000   0.378755000000000  -0.000000000002960   22 l up  # Ti
  0.121245000000000   0.621245000000000  -0.000000000000597   22 l up  # Ti
  0.621245000000000   0.878755000000000  -0.000000000001141   22 l up  # Ti
