#************************************************************************************
#*                   Generated by cif2cell 2.1.0 2026-05-08 2:23                    *
#*  T. Bjorkman, Comp. Phys. Commun. 182, 1183-1186 (2011). Please cite generously. *
#*                                                                                  *
#*                              Data obtained from COD                              *
#*                                    None   ()                                     *
#*             Failed to get author information, No journal information             *
#************************************************************************************
# Lattice constant in a.u.
lengthscale
4.956870513639678
# Spin polarized calculation
spinpol
# Spin polarize atomic densities
spinpol_atomdens
# Choice of MT radii
mtradii
3
# Lattice vectors (columns)
latticevectors
  1.000000000000000  -0.499999960474725   0.000000000000000 
  0.000000000000000   0.866012019700391   0.000000000000000 
  0.000000000000000   0.000000000000000   3.228114502283557 
# Spin axis
spinaxis
  0.000000000000000   0.000000000000000   1.000000000000000  l
# Sites
atoms
8
  0.666666666666667   0.333333333333333   0.250000000000004   26 l up   # Fe
  0.333333333333333   0.666666666666667   0.750000000000003   26 l up   # Fe
  0.000000000000000   0.000000000000000  -0.000000000000001   25 l up   # Mn
  0.000000000000000   0.000000000000000   0.499999999999999   25 l up   # Mn
  0.666666666666667   0.333333333333333   0.879601313547555    1 l a   # H
  0.333333333333333   0.666666666666667   0.120398686452446    1 l a   # H
  0.333333333333333   0.666666666666667   0.379601313547553    1 l a   # H
  0.666666666666667   0.333333333333333   0.620398686452447    1 l a   # H
