#FeSn hcp [a1 ; a2 ; a3]  - vectors are in columns!
latticevectors
     3.8667015112985017    0.0000000000000011   0.0000000000000000
     0.0000000000000000    3.8667015112985097   0.0000000000010000
     0.0000000000000003    0.0000000000000001   3.6843004242551776
#
spinaxis
0.0 0.0 1.0  c
#
spinpol
#
fullrel
#
atoms
4
  0.0000000000000100  0.5000000000000001  0.5000000000000000 78 l a   # Pt
  0.5000000000000010  0.0000000000000000  0.5000000000000010 78 l a   # Pt
  0.5000000000000000  0.5000000000000011  0.0000000000000000 28 l up   # Ni
  0.0000000000000020  0.0000000000000000  0.0000000000000100 26 l up   # Fe
#
lengthscale
1.8897259886
#
mtradii
3
