#************************************************************************************
#*                   Generated by cif2cell 2.1.0 2024-10-04 0:28                    *
#*  T. Bjorkman, Comp. Phys. Commun. 182, 1183-1186 (2011). Please cite generously. *
#*                                                                                  *
#*                              Data obtained from COD                              *
#*                                   Y3Fe8Co   ()                                   *
#*             Failed to get author information, No journal information             *
#************************************************************************************
# Lattice constant in a.u.
lengthscale
9.6741674203089
# Spin polarized calculation
spinpol
# Spin polarize atomic densities
spinpol_atomdens
# Choice of MT radii
mtradii
3
# Lattice vectors (columns)
latticevectors
  1.000000000000000  -0.499999902369689   0.000000000000000 
  0.000000000000000   0.866025543607079   0.000000000000000 
  0.000000000000000   0.000000000000000   3.174410261929789 
# Spin axis
spinaxis
  0.000000000000000   0.000000000000000   1.000000000000000  l
# Sites
atoms
24
  0.333333333333333   0.666666666666667   0.963270999999845   39 l a   # Y
  0.666666666666667   0.333333333333333   0.036729000000583   39 l a   # Y
  0.666666666666667   0.333333333333333   0.463270999999829   39 l a   # Y
  0.333333333333333   0.666666666666667   0.536729000000312   39 l a   # Y
  0.333333333333333   0.666666666666667   0.750000000000123   39 l a   # Y
  0.666666666666667   0.333333333333333   0.249999999999450   39 l a   # Y
  0.000000000000000   0.000000000000000   0.499999999999750   27 l up  # Co
  0.000000000000000   0.000000000000000   0.000000000000356   27 l up  # Co
  0.166414000000000   0.833586000000000   0.372579999999617   26 l up  # Fe
  0.166414000000000   0.332828000000000   0.372579999999984   26 l up  # Fe
  0.667172000000000   0.833586000000000   0.372580000000207   26 l up  # Fe
  0.833586000000000   0.166414000000000   0.627420000000120   26 l up  # Fe
  0.833586000000000   0.667172000000000   0.627420000000034   26 l up  # Fe
  0.332828000000000   0.166414000000000   0.627420000000099   26 l up  # Fe
  0.833586000000000   0.166414000000000   0.872579999999957   26 l up  # Fe
  0.833586000000000   0.667172000000000   0.872580000000021   26 l up  # Fe
  0.332828000000000   0.166414000000000   0.872579999999915   26 l up  # Fe
  0.166414000000000   0.833586000000000   0.127420000000290   26 l up  # Fe
  0.166414000000000   0.332828000000000   0.127419999999869   26 l up  # Fe
  0.667172000000000   0.833586000000000   0.127420000000257   26 l up  # Fe
  0.333333333333333   0.666666666666667   0.250000000000058   26 l up  # Fe
  0.666666666666667   0.333333333333333   0.749999999999971   26 l up  # Fe
  0.000000000000000   0.000000000000000   0.249999999999943   26 l up  # Fe
  0.000000000000000   0.000000000000000   0.749999999999680   26 l up  # Fe
