#************************************************************************************
#*                   Generated by cif2cell 2.1.0 2026-05-09 22:20                   *
#*  T. Bjorkman, Comp. Phys. Commun. 182, 1183-1186 (2011). Please cite generously. *
#*                                                                                  *
#*                              Data obtained from COD                              *
#*                                    None   ()                                     *
#*             Failed to get author information, No journal information             *
#************************************************************************************
# Lattice constant in a.u.
lengthscale
10.096291764720851
# Spin polarized calculation
spinpol
# Spin polarize atomic densities
spinpol_atomdens
# Choice of MT radii
mtradii
3
# Lattice vectors (columns)
latticevectors
  1.000000000000000  -0.500000044522991   0.000000000000000 
  0.000000000000000   0.866025480887281   0.000000000000000 
  0.000000000000000   0.000000000000000   0.843600569922270 
# Spin axis
spinaxis
  0.000000000000000   0.000000000000000   1.000000000000000  l
# Sites
atoms
6
  0.000000000000000   0.000000000000000   0.000000000000008   51 l a   # Sb
  0.666666666666667   0.333333333333333   0.499999000000014   50 l a   # Sn
  0.333333333333333   0.666666666666667   0.499999000000004   50 l a   # Sn
  0.499999000000003   0.000000000000000  -0.000000000000015   25 l up   # Mn
  0.000000000000000   0.500000000000000  -0.000000000000011   25 l up   # Mn
  0.500000000000000   0.500000000000000  -0.000000000000006   25 l up   # Mn
