#************************************************************************************
#*                   Generated by cif2cell 2.1.0 2026-05-06 14:41                   *
#*  T. Bjorkman, Comp. Phys. Commun. 182, 1183-1186 (2011). Please cite generously. *
#*                                                                                  *
#*                              Data obtained from COD                              *
#*                                    None   ()                                     *
#*             Failed to get author information, No journal information             *
#************************************************************************************
# Lattice constant in a.u.
lengthscale
9.796182259997941
# Spin polarized calculation
spinpol
# Spin polarize atomic densities
spinpol_atomdens
# Choice of MT radii
mtradii
3
# Lattice vectors (columns)
latticevectors
  1.000000000000000  -0.500000069391707   0.000000000000000 
  0.000000000000000   0.866025257664029   0.000000000000000 
  0.000000000000000   0.000000000000000   1.322209411074272 
# Spin axis
spinaxis
  0.000000000000000   0.000000000000000   1.000000000000000  l
# Sites
atoms
12
  0.000000000000000   0.000000000000000  -0.000000000000003   39 l a   # Y
  0.000000000000000   0.000000000000000   0.499999999999996   39 l a   # Y
  0.500000000000000   0.500000000000000   0.705200283506289   26 l up   # Fe
  0.500000000000000   0.000000000000000   0.705200283506292   26 l up   # Fe
  0.000000000000000   0.500000000000000   0.705200283506291   26 l up   # Fe
  0.500000000000000   0.500000000000000   0.294799716493699   26 l up   # Fe
  0.500000000000000   0.000000000000000   0.294799716493702   26 l up   # Fe
  0.000000000000000   0.500000000000000   0.294799716493718   26 l up   # Fe
  0.666666666666667   0.333333333333333   0.000000000000016   13 l a   # Al
  0.333333333333333   0.666666666666667   0.000000000000007   13 l a   # Al
  0.666666666666667   0.333333333333333   0.500000000000001    5 l a   # B
  0.333333333333333   0.666666666666667   0.500000000000015    5 l a   # B
