#************************************************************************************
#*                   Generated by cif2cell 2.1.0 2025-04-23 14:17                   *
#*  T. Bjorkman, Comp. Phys. Commun. 182, 1183-1186 (2011). Please cite generously. *
#*                                                                                  *
#*                              Data obtained from COD                              *
#*                                    None   ()                                     *
#*             Failed to get author information, No journal information             *
#************************************************************************************
# Lattice constant in a.u.
lengthscale
10.0529611273278
# Spin polarized calculation
spinpol
# Spin polarize atomic densities
spinpol_atomdens
# Choice of MT radii
mtradii
3
# Lattice vectors (columns)
latticevectors
  1.000000000000000   0.000000000000000   0.000000000000000 
  0.000000000000000   1.000000000000000   0.000000000000000 
  0.000000000000000   0.000000000000000   0.837809443140510 
# Spin axis
spinaxis
  0.000000000000000   0.000000000000000   1.000000000000000  l
# Sites
atoms
12
  0.340292000000000   0.840292000000000   0.249999999999970   26 l up  # Fe
  0.159708000000000   0.340292000000000   0.249999999999996   26 l up  # Fe
  0.340292000000000   0.159708000000000   0.750000000000008   26 l up  # Fe
  0.159708000000000   0.659708000000000   0.749999999999999   26 l up  # Fe
  0.840292000000000   0.340292000000000   0.750000000000011   26 l up  # Fe
  0.659708000000000   0.840292000000000   0.749999999999989   26 l up  # Fe
  0.840292000000000   0.659708000000000   0.249999999999995   26 l up  # Fe
  0.659708000000000   0.159708000000000   0.249999999999987   26 l up  # Fe
  0.000000000000000   0.000000000000000   0.000000000000009   15 l a   # P
  0.500000000000000   0.500000000000000   0.499999999999976   15 l a   # P
  0.000000000000000   0.000000000000000   0.500000000000006    4 l a   # Be
  0.500000000000000   0.500000000000000   0.000000000000008    4 l a   # Be
