#************************************************************************************
#*                   Generated by cif2cell 2.1.0 2025-05-20 17:38                   *
#*  T. Bjorkman, Comp. Phys. Commun. 182, 1183-1186 (2011). Please cite generously. *
#*                                                                                  *
#*                              Data obtained from COD                              *
#*                                    None   ()                                     *
#*             Failed to get author information, No journal information             *
#************************************************************************************
# Lattice constant in a.u.
lengthscale
10.734239511721501
# Spin polarized calculation
spinpol
# Spin polarize atomic densities
spinpol_atomdens
# Choice of MT radii
mtradii
3
# Lattice vectors (columns)
latticevectors
  1.000000000000000   0.000000000000000   0.000000000000000 
  0.000000000000000   1.000000000000000   0.000000000000000 
  0.000000000000000   0.000000000000000   1.095995556584450 
# Spin axis
spinaxis
  0.000000000000000   0.000000000000000   1.000000000000000  l
# Sites
atoms
18
  0.000000000000010   0.000000000000000   0.294440000000000   26 l up  # Fe
  0.000000000000000   0.000000000000010   0.705560000000000   26 l up  # Fe
  0.500000000000000   0.500000000000000   0.794440000000000   26 l up  # Fe
  0.500000000000000   0.500000000000010   0.205560000000000   26 l up  # Fe
  0.243179000000000   0.243179000000000   0.000000000000010   26 l up  # Fe
  0.756821000000000   0.756821000000010   0.000000000000000   26 l up  # Fe
  0.756821000000000   0.243179000000000   0.000000000000010   26 l up  # Fe
  0.243179000000000   0.756821000000010   0.000000000000000   26 l up  # Fe
  0.743179000000000   0.743179000000000   0.500000000000010   26 l up  # Fe
  0.256821000000000   0.256821000000010   0.500000000000000   26 l up  # Fe
  0.256821000000000   0.743179000000000   0.500000000000010   26 l up  # Fe
  0.743179000000000   0.256821000000010   0.500000000000000   26 l up  # Fe
  0.000000000000010   0.500000000000000   0.250000000000000   26 l up  # Fe
  0.000000000000010   0.500000000000000   0.750000000000000   26 l up  # Fe
  0.500000000000000   0.000000000000010   0.250000000000000   26 l up  # Fe
  0.500000000000000   0.000000000000010   0.750000000000000   26 l up  # Fe
  0.000000000000000   0.000000000000010   0.000000000000000    7 l a   # N
  0.500000000000000   0.500000000000000   0.500000000000010    7 l a   # N
