#************************************************************************************
#*                   Generated by cif2cell 2.1.0 2025-03-28 23:09                   *
#*  T. Bjorkman, Comp. Phys. Commun. 182, 1183-1186 (2011). Please cite generously. *
#*                                                                                  *
#*                              Data obtained from COD                              *
#*                                    None   ()                                     *
#*             Failed to get author information, No journal information             *
#************************************************************************************
# Lattice constant in a.u.
lengthscale
11.679000516512101
# Spin polarized calculation
spinpol
# Spin polarize atomic densities
spinpol_atomdens
# Choice of MT radii
mtradii
3
# Lattice vectors (columns)
latticevectors
  1.000000000000000  -0.499999919097268   0.000000000000000 
  0.000000000000000   0.866025263656796   0.000000000000000 
  0.000000000000000   0.000000000000000   0.474862954816957 
# Spin axis
spinaxis
  0.000000000000000   0.000000000000000   1.000000000000000  l
# Sites
atoms
9
  0.757112000000000   0.757112000000000  -0.000000000000005   26 l up  # Fe
  0.000000000000000   0.242888000000000   0.000000000000045   26 l up  # Fe
  0.385101000000000   0.385101000000000   0.499999999999945   26 l up  # Fe
  0.000000000000000   0.614899000000000   0.500000000000012   26 l up  # Fe
  0.242888000000000   0.000000000000000  -0.000000000000000   26 l up  # Fe
  0.614899000000000   0.000000000000000   0.499999999999982   26 l up  # Fe
  0.333333333333333   0.666666666666667  -0.000000000000012   14 l a   # Si
  0.666666666666667   0.333333333333333   0.000000000000007   14 l a   # Si
  0.000000000000000   0.000000000000000   0.500000000000021    5 l a   # B
