#************************************************************************************
#*                   Generated by cif2cell 2.1.0 2025-04-23 14:22                   *
#*  T. Bjorkman, Comp. Phys. Commun. 182, 1183-1186 (2011). Please cite generously. *
#*                                                                                  *
#*                              Data obtained from COD                              *
#*                                    None   ()                                     *
#*             Failed to get author information, No journal information             *
#************************************************************************************
# Lattice constant in a.u.
lengthscale
10.3036219561362
# Spin polarized calculation
spinpol
# Spin polarize atomic densities
spinpol_atomdens
# Choice of MT radii
mtradii
3
# Lattice vectors (columns)
latticevectors
  1.000000000000000   0.000000000000000   0.000000000000000 
  0.000000000000000   1.000000000000000   0.000000000000000 
  0.000000000000000   0.000000000000000   1.821307223442267 
# Spin axis
spinaxis
  0.000000000000000   0.000000000000000   1.000000000000000  l
# Sites
atoms
32
  0.500000000000000   0.500000000000000  -0.000000000000005   26 l up  # Fe
  0.167693000000000   0.667693000000000   0.143149000000000   26 l up  # Fe
  0.667693000000000   0.832307000000000   0.143148999999999   26 l up  # Fe
  0.332307000000000   0.832307000000000   0.356851000000007   26 l up  # Fe
  0.667693000000000   0.167693000000000   0.356850999999991   26 l up  # Fe
  0.167693000000000   0.332307000000000   0.356851000000002   26 l up  # Fe
  0.832307000000000   0.667693000000000   0.356851000000007   26 l up  # Fe
  0.332307000000000   0.167693000000000   0.143148999999997   26 l up  # Fe
  0.000000000000000   0.000000000000000  -0.000000000000002   26 l up  # Fe
  0.832307000000000   0.332307000000000   0.143149000000002   26 l up  # Fe
  0.000000000000000   0.000000000000000   0.499999999999998   26 l up  # Fe
  0.667693000000000   0.167693000000000   0.643149000000001   26 l up  # Fe
  0.167693000000000   0.332307000000000   0.643149000000005   26 l up  # Fe
  0.832307000000000   0.332307000000000   0.856851000000011   26 l up  # Fe
  0.167693000000000   0.667693000000000   0.856851000000001   26 l up  # Fe
  0.667693000000000   0.832307000000000   0.856851000000003   26 l up  # Fe
  0.332307000000000   0.167693000000000   0.856850999999998   26 l up  # Fe
  0.832307000000000   0.667693000000000   0.643148999999998   26 l up  # Fe
  0.500000000000000   0.500000000000000   0.500000000000007   26 l up  # Fe
  0.332307000000000   0.832307000000000   0.643149000000003   26 l up  # Fe
  0.879168000000000   0.620832000000000  -0.000000000000002    5 l a   # B
  0.379168000000000   0.879168000000000   0.000000000000003    5 l a   # B
  0.120832000000000   0.379168000000000   0.000000000000005    5 l a   # B
  0.620832000000000   0.120832000000000  -0.000000000000007    5 l a   # B
  0.379168000000000   0.120832000000000   0.499999999999997    5 l a   # B
  0.879168000000000   0.379168000000000   0.499999999999990    5 l a   # B
  0.620832000000000   0.879168000000000   0.500000000000007    5 l a   # B
  0.120832000000000   0.620832000000000   0.500000000000003    5 l a   # B
  0.000000000000000   0.000000000000000   0.249999999999998    4 l a   # Be
  0.500000000000000   0.500000000000000   0.250000000000002    4 l a   # Be
  0.500000000000000   0.500000000000000   0.749999999999986    4 l a   # Be
  0.000000000000000   0.000000000000000   0.750000000000000    4 l a   # Be
