#************************************************************************************
#*                   Generated by cif2cell 2.1.0 2025-04-20 18:37                   *
#*  T. Bjorkman, Comp. Phys. Commun. 182, 1183-1186 (2011). Please cite generously. *
#*                                                                                  *
#*                              Data obtained from COD                              *
#*                                    None   ()                                     *
#*             Failed to get author information, No journal information             *
#************************************************************************************
# Lattice constant in a.u.
lengthscale
6.8642656520793
# Spin polarized calculation
spinpol
# Spin polarize atomic densities
spinpol_atomdens
# Choice of MT radii
mtradii
3
# Lattice vectors (columns)
latticevectors
  1.000000000000000   0.000000000000000   0.000000000000000 
  0.000000000000000   1.000000000000000   0.000000000000000 
  0.000000000000000   0.000000000000000   1.986407107341593 
# Spin axis
spinaxis
  0.000000000000000   0.000000000000000   1.000000000000000  l
# Sites
atoms
8
  0.000000007299313  -0.000000000084037   0.500000508650459   73 l a   # Ta
  0.500000003589241   0.500000000007141   0.000000426441317   28 l up  # Ni
  0.500000000099586   0.500000000000736   0.499999918235296   28 l up  # Ni
  0.499999999916148   0.000000000000553   0.248396944262268   28 l up  # Ni
  0.500000000007730   0.000000000000028   0.751603007592005   28 l up  # Ni
 -0.000000000400554   0.500000000002948   0.248396544173545   28 l up  # Ni
  0.000000001352844   0.500000000012258   0.751603529460432   28 l up  # Ni
  0.000000003740464   0.000000000007644   0.000000492388764   25 l up  # Mn
