#************************************************************************************
#*                   Generated by cif2cell 2.1.0 2025-05-21 23:00                   *
#*  T. Bjorkman, Comp. Phys. Commun. 182, 1183-1186 (2011). Please cite generously. *
#*                                                                                  *
#*                              Data obtained from COD                              *
#*                                    None   ()                                     *
#*             Failed to get author information, No journal information             *
#************************************************************************************
# Lattice constant in a.u.
lengthscale
10.685059389969
# Spin polarized calculation
spinpol
# Spin polarize atomic densities
spinpol_atomdens
# Choice of MT radii
mtradii
3
# Lattice vectors (columns)
latticevectors
  1.000000000000000   0.000000000000000   0.000000000000000 
  0.000000000000000   1.000000000000000   0.000000000000000 
  0.000000000000000   0.000000000000000   1.099978954033132 
# Spin axis
spinaxis
  0.000000000000000   0.000000000000000   1.000000000000000  l
# Sites
atoms
18
  0.000000000000000   0.500000000000000   0.250000000000010   27 l up  # Co
  0.000000000000010   0.500000000000000   0.750000000000000   27 l up  # Co
  0.500000000000000   0.000000000000000   0.250000000000000   27 l up  # Co
  0.500000000000010   0.000000000000000   0.750000000000000   27 l up  # Co
  0.000000000000000   0.000000000000000   0.293518000000000   26 l up  # Fe
  0.000000000000000   0.000000000000010   0.706482000000000   26 l up  # Fe
  0.500000000000000   0.500000000000000   0.793518000000000   26 l up  # Fe
  0.500000000000000   0.500000000000010   0.206482000000000   26 l up  # Fe
  0.244590000000000   0.244590000000000   0.000000000000000   26 l up  # Fe
  0.755410000000000   0.755410000000000   0.000000000000010   26 l up  # Fe
  0.755410000000000   0.244590000000000   0.000000000000000   26 l up  # Fe
  0.244590000000000   0.755410000000000   0.000000000000010   26 l up  # Fe
  0.744590000000000   0.744590000000000   0.500000000000000   26 l up  # Fe
  0.255410000000000   0.255410000000010   0.500000000000000   26 l up  # Fe
  0.255410000000000   0.744590000000000   0.500000000000000   26 l up  # Fe
  0.744590000000000   0.255410000000010   0.500000000000000   26 l up  # Fe
  0.000000000000000   0.000000000000000   0.000000000000000    7 l a   # N
  0.500000000000000   0.500000000000010   0.500000000000000    7 l a   # N
