#************************************************************************************
#*                   Generated by cif2cell 2.1.0 2025-05-21 23:45                   *
#*  T. Bjorkman, Comp. Phys. Commun. 182, 1183-1186 (2011). Please cite generously. *
#*                                                                                  *
#*                              Data obtained from COD                              *
#*                                    None   ()                                     *
#*             Failed to get author information, No journal information             *
#************************************************************************************
# Lattice constant in a.u.
lengthscale
10.6725361751043
# Spin polarized calculation
spinpol
# Spin polarize atomic densities
spinpol_atomdens
# Choice of MT radii
mtradii
3
# Lattice vectors (columns)
latticevectors
  1.000000000000000   0.000000000000000   0.000000000000000 
  0.000000000000000   1.000000000000000   0.000000000000000 
  0.000000000000000   0.000000000000000   1.099978876218358 
# Spin axis
spinaxis
  0.000000000000000   0.000000000000000   1.000000000000000  l
# Sites
atoms
18
  0.000000000000000   0.000000000000010   0.294454000000000   26 l up  # Fe
  0.000000000000000   0.000000000000000   0.705546000000000   26 l up  # Fe
  0.500000000000010   0.500000000000000   0.794454000000000   26 l up  # Fe
  0.500000000000000   0.500000000000000   0.205546000000000   26 l up  # Fe
  0.240666000000010   0.240666000000000   0.000000000000000   26 l up  # Fe
  0.759334000000000   0.759334000000000   0.000000000000000   26 l up  # Fe
  0.759334000000000   0.240666000000010   0.000000000000000   26 l up  # Fe
  0.240666000000000   0.759334000000000   0.000000000000000   26 l up  # Fe
  0.740666000000000   0.740666000000010   0.500000000000000   26 l up  # Fe
  0.259334000000000   0.259334000000000   0.500000000000000   26 l up  # Fe
  0.259334000000000   0.740666000000000   0.500000000000010   26 l up  # Fe
  0.740666000000000   0.259334000000000   0.500000000000000   26 l up  # Fe
  0.000000000000000   0.500000000000000   0.250000000000010   23 l up  # V
  0.000000000000000   0.500000000000000   0.750000000000000   23 l up  # V
  0.500000000000000   0.000000000000010   0.250000000000000   23 l up  # V
  0.500000000000000   0.000000000000000   0.750000000000000   23 l up  # V
  0.000000000000000   0.000000000000010  -0.000000000000000    7 l a   # N
  0.500000000000000   0.500000000000000   0.500000000000000    7 l a   # N
