#************************************************************************************
#*                   Generated by cif2cell 2.1.0 2025-03-28 12:11                   *
#*  T. Bjorkman, Comp. Phys. Commun. 182, 1183-1186 (2011). Please cite generously. *
#*                                                                                  *
#*                              Data obtained from COD                              *
#*                                    None   ()                                     *
#*             Failed to get author information, No journal information             *
#************************************************************************************
# Lattice constant in a.u.
lengthscale
7.1432251292352
# Spin polarized calculation
spinpol
# Spin polarize atomic densities
spinpol_atomdens
# Choice of MT radii
mtradii
3
# Lattice vectors (columns)
latticevectors
  1.000000000000000   0.000000000000000   0.000000000000000 
  0.000000000000000   1.000000000000000   0.000000000000000 
  0.000000000000000   0.000000000000000   1.862037411323502 
# Spin axis
spinaxis
  0.000000000000000   0.000000000000000   1.000000000000000  l
# Sites
atoms
9
  0.500000000008129   0.499999999999996   0.726508991795075   26 l up  # Fe
  0.500000000001580   0.499999999999999   0.273491003421656   26 l up  # Fe
  0.499999999999976   0.000000000000000  -0.000000004479413   26 l up  # Fe
  0.500000000000494   0.000000000000000   0.500000002790087   26 l up  # Fe
  0.000000000000695   0.500000000000000  -0.000000001950557   26 l up  # Fe
  0.000000000000716   0.500000000000001   0.499999999020434   26 l up  # Fe
  0.000000000000015   0.000000000000000   0.750031997015891   13 l a   # Al
  0.000000000011193  -0.000000000000008   0.249967989527671   13 l a   # Al
  0.500000000000274   0.500000000000000   0.000000004742766    6 l a   # C
