#************************************************************************************
#*                   Generated by cif2cell 2.1.0 2025-03-28 22:54                   *
#*  T. Bjorkman, Comp. Phys. Commun. 182, 1183-1186 (2011). Please cite generously. *
#*                                                                                  *
#*                              Data obtained from COD                              *
#*                                    None   ()                                     *
#*             Failed to get author information, No journal information             *
#************************************************************************************
# Lattice constant in a.u.
lengthscale
8.7607928763132
# Spin polarized calculation
spinpol
# Spin polarize atomic densities
spinpol_atomdens
# Choice of MT radii
mtradii
3
# Lattice vectors (columns)
latticevectors
  1.000000000000000  -0.499999879080038   0.000000000000000 
  0.000000000000000   0.866025473597600   0.000000000000000 
  0.000000000000000   0.000000000000000   1.661366493443071 
# Spin axis
spinaxis
  0.000000000000000   0.000000000000000   1.000000000000000  l
# Sites
atoms
12
  0.333333333333333   0.666666666666667   0.932658999999991   75 l up  # Re
  0.666666666666667   0.333333333333333   0.432659000000002   75 l up  # Re
  0.666666666666667   0.333333333333333   0.066272999999991   74 l up  # W
  0.333333333333333   0.666666666666667   0.566272999999996   74 l up  # W
  0.000000000000000   0.000000000000000   0.999366999999996   26 l up  # Fe
  0.000000000000000   0.000000000000000   0.499367000000003   26 l up  # Fe
  0.170518000000000   0.829482000000000   0.250567000000009   26 l up  # Fe
  0.341036000000000   0.170518000000000   0.750567000000000   26 l up  # Fe
  0.829482000000000   0.658964000000000   0.750567000000007   26 l up  # Fe
  0.170518000000000   0.341036000000000   0.250566999999991   26 l up  # Fe
  0.658964000000000   0.829482000000000   0.250567000000000   26 l up  # Fe
  0.829482000000000   0.170518000000000   0.750566999999988   26 l up  # Fe
