#************************************************************************************
#*                   Generated by cif2cell 2.1.0 2025-04-16 16:26                   *
#*  T. Bjorkman, Comp. Phys. Commun. 182, 1183-1186 (2011). Please cite generously. *
#*                                                                                  *
#*                Data obtained from ICSD. Reference number : 91514                 *
#*                                   Fe16 N2   ()                                   *
#* Failed to get author information, Key Engineering Materials 181, 213-216 (2000)  *
#************************************************************************************
# Lattice constant in a.u.
lengthscale
10.80772151112
# Spin polarized calculation
spinpol
# Spin polarize atomic densities
spinpol_atomdens
# Choice of MT radii
mtradii
3
# Lattice vectors (columns)
latticevectors
  1.000000000000000   0.000000000000000   0.500000000000000 
  0.000000000000000   1.000000000000000   0.500000000000000 
  0.000000000000000   0.000000000000000   0.549989509022241 
# Spin axis
spinaxis
  0.000000000000000   0.000000000000000   1.000000000000000  l
# Sites
atoms
9
  0.710199999999999   0.710199999999999   0.579600000000002   26 l up   # Fe
  0.289800000000008   0.289800000000008   0.420399999999984   26 l up  # Fe
  0.244899999999997   0.244899999999997   0.000000000000005   26 l up  # Fe
  0.244900000000001   0.755100000000001  -0.000000000000002   26 l up  # Fe
  0.755100000000003   0.244900000000003  -0.000000000000006   26 l up  # Fe
  0.755099999999995   0.755099999999995   0.000000000000010   26 l up  # Fe
  0.750000000000013   0.250000000000013   0.499999999999974   26 l up  # Fe
  0.249999999999988   0.749999999999988   0.500000000000023   26 l up  # Fe
 -0.000000000000005  -0.000000000000005   0.000000000000009    7 l a   # N
