#************************************************************************************
#*                   Generated by cif2cell 2.1.0 2025-01-31 17:43                   *
#*  T. Bjorkman, Comp. Phys. Commun. 182, 1183-1186 (2011). Please cite generously. *
#*                                                                                  *
#*                              Data obtained from COD                              *
#*                                    None   ()                                     *
#*             Failed to get author information, No journal information             *
#************************************************************************************
# Lattice constant in a.u.
lengthscale
4.9989774900045
# Spin polarized calculation
spinpol
# Spin polarize atomic densities
spinpol_atomdens
# Choice of MT radii
mtradii
3
# Lattice vectors (columns)
latticevectors
  1.000000000000000  -0.499999899385283   0.000000000000000 
  0.000000000000000   0.866011930261588   0.000000000000000 
  0.000000000000000   0.000000000000000   3.228114291330621 
# Spin axis
spinaxis
  0.000000000000000   0.000000000000000   1.000000000000000  l
# Sites
atoms
8
  0.000000000000000   0.000000000000000   0.000000000000000   27 l up  # Co
  0.000000000000000   0.000000000000000   0.500000000000000   27 l up  # Co
  0.666666666666667   0.333333333333333   0.250000000000000   26 l up  # Fe
  0.333333333333333   0.666666666666667   0.750000000000000   26 l dn  # Fe
  0.666666666666667   0.333333333333333   0.884382000000000    1 l a   # H
  0.333333333333333   0.666666666666667   0.115617000000000    1 l a   # H
  0.333333333333333   0.666666666666667   0.384383000000000    1 l a   # H
  0.666666666666667   0.333333333333333   0.615618000000000    1 l a   # H
